
Welcome to IBM(R) ILOG(R) CPLEX(R) Interactive Optimizer 22.1.1.0
  with Simplex, Mixed Integer & Barrier Optimizers
5725-A06 5725-A29 5724-Y48 5724-Y49 5724-Y54 5724-Y55 5655-Y21
Copyright IBM Corp. 1988, 2022.  All Rights Reserved.

Type 'help' for a list of available commands.
Type 'help' followed by a command name for more
information on commands.

CPLEX> Selected objective sense:  MINIMIZE
Selected objective  name:  00000000
Selected RHS        name:  RHS1
Selected bound      name:  BOUND
Problem 'ee.mps' read.
Read time = 0.03 sec. (3.14 ticks)
CPLEX> New value for time limit in seconds: 7200
CPLEX> New value for parallel optimization mode: -1
CPLEX> New value for default parallel thread count: 40
CPLEX> New value for mixed integer optimality gap tolerance: 1e-13
CPLEX> Version identifier: 22.1.1.0 | 2022-11-28 | 9160aff4d
CPXPARAM_Threads                                 40
CPXPARAM_Parallel                                -1
CPXPARAM_TimeLimit                               7200
CPXPARAM_MIP_Tolerances_MIPGap                   1e-13
Found incumbent of value 0.000000 after 0.00 sec. (0.31 ticks)
Tried aggregator 2 times.
MIP Presolve eliminated 183 rows and 2745 columns.
MIP Presolve modified 5862 coefficients.
Aggregator did 713 substitutions.
Reduced MIP has 3624 rows, 7744 columns, and 28665 nonzeros.
Reduced MIP has 7744 binaries, 0 generals, 0 SOSs, and 0 indicators.
Presolve time = 0.07 sec. (68.80 ticks)
Probing time = 0.03 sec. (5.97 ticks)
Tried aggregator 1 time.
Detecting symmetries...
Reduced MIP has 3624 rows, 7744 columns, and 28665 nonzeros.
Reduced MIP has 7744 binaries, 0 generals, 0 SOSs, and 0 indicators.
Presolve time = 0.03 sec. (21.94 ticks)
Probing time = 0.02 sec. (5.79 ticks)
Clique table members: 18557.
MIP emphasis: balance optimality and feasibility.
MIP search method: dynamic search.
Parallel mode: opportunistic, using up to 40 threads.
Root relaxation solution time = 0.17 sec. (145.37 ticks)

        Nodes                                         Cuts/
   Node  Left     Objective  IInf  Best Integer    Best Bound    ItCnt     Gap

*     0+    0                            0.0000  -1.31000e+13              --- 
*     0+    0                      -5.38000e+12  -1.31000e+13           143.49%
*     0+    0                      -6.48000e+12  -1.31000e+13           102.16%
      0     0  -1.30900e+13   104  -6.48000e+12  -1.30900e+13     2936  102.01%
*     0+    0                      -1.30900e+13  -1.30900e+13             0.00%
*     0+    0                      -1.30900e+13  -1.30900e+13             0.00%
      0     0  -1.30900e+13   158  -1.30900e+13      Cuts: 74     3603    0.00%
*     0+    0                      -1.30900e+13  -1.30900e+13             0.00%
      0     0  -1.30900e+13   197  -1.30900e+13      Cuts: 76     4121    0.00%
*     0+    0                      -1.30900e+13  -1.30900e+13             0.00%

Repeating presolve.
Tried aggregator 2 times.
MIP Presolve eliminated 2368 rows and 5188 columns.
MIP Presolve modified 52 coefficients.
Aggregator did 395 substitutions.
Reduced MIP has 861 rows, 2131 columns, and 7303 nonzeros.
Reduced MIP has 2131 binaries, 0 generals, 0 SOSs, and 0 indicators.
Presolve time = 0.03 sec. (31.23 ticks)
Probing fixed 2 vars, tightened 0 bounds.
Probing time = 0.01 sec. (11.86 ticks)
Tried aggregator 1 time.
Detecting symmetries...
MIP Presolve eliminated 0 rows and 2 columns.
Reduced MIP has 861 rows, 2129 columns, and 7295 nonzeros.
Reduced MIP has 2129 binaries, 0 generals, 0 SOSs, and 0 indicators.
Presolve time = 0.01 sec. (5.26 ticks)
Represolve time = 0.06 sec. (62.10 ticks)
Probing time = 0.00 sec. (2.80 ticks)
Clique table members: 5094.
MIP emphasis: balance optimality and feasibility.
MIP search method: dynamic search.
Parallel mode: opportunistic, using up to 40 threads.
Root relaxation solution time = 0.05 sec. (27.18 ticks)

        Nodes                                         Cuts/
   Node  Left     Objective  IInf  Best Integer    Best Bound    ItCnt     Gap

*     0+    0                      -1.30900e+13  -1.30900e+13             0.00%
      0     0  -1.30900e+13    93  -1.30900e+13  -1.30900e+13     4999    0.00%
*     0+    0                      -1.30900e+13  -1.30900e+13             0.00%
      0     0  -1.30900e+13   141  -1.30900e+13     Cuts: 101     5182    0.00%
      0     0  -1.30900e+13   184  -1.30900e+13      Cuts: 89     5495    0.00%
*     0+    0                      -1.30900e+13  -1.30900e+13             0.00%
      0     0  -1.00000e+75     0  -1.30900e+13  -1.30900e+13     5495    0.00%
      0     2  -1.30900e+13   161  -1.30900e+13  -1.30900e+13     5495    0.00%
Elapsed time = 1.67 sec. (1120.00 ticks, tree = 0.02 MB, solutions = 9)
   1134    47        cutoff        -1.30900e+13  -1.30900e+13    54285    0.00%

GUB cover cuts applied:  8
Clique cuts applied:  28
Cover cuts applied:  427
Flow cuts applied:  6
Mixed integer rounding cuts applied:  15
Zero-half cuts applied:  11
Lift and project cuts applied:  7
Gomory fractional cuts applied:  20

Root node processing (before b&c):
  Real time             =    1.44 sec. (1119.91 ticks)
Parallel b&c, 40 threads:
  Real time             =    0.96 sec. (446.63 ticks)
  Sync time (average)   =    0.45 sec.
  Wait time (average)   =    0.00 sec.
                          ------------
Total (root+branch&cut) =    2.40 sec. (1566.54 ticks)

Solution pool: 9 solutions saved.

MIP - Integer optimal solution:  Objective = -1.3089999290e+13
Solution time =    2.44 sec.  Iterations = 133657  Nodes = 1316
Deterministic time = 1566.58 ticks  (640.92 ticks/sec)

CPLEX> Solution 'p10' written to file 'ee.sol'.
CPLEX> 